12 66
1 2 1
1 3 4
1 4 3
1 5 3
1 6 2
1 7 3
1 8 5
1 9 2
1 10 2
1 11 4
1 12 1
2 3 4
2 4 1
2 5 5
2 6 3
2 7 3
2 8 4
2 9 2
2 10 2
2 11 1
2 12 2
3 4 5
3 5 3
3 6 3
3 7 3
3 8 1
3 9 4
3 10 5
3 11 4
3 12 5
4 5 4
4 6 5
4 7 1
4 8 4
4 9 5
4 10 5
4 11 3
4 12 1
5 6 3
5 7 3
5 8 3
5 9 4
5 10 3
5 11 5
5 12 2
6 7 4
6 8 1
6 9 5
6 10 5
6 11 1
6 12 2
7 8 2
7 9 3
7 10 2
7 11 5
7 12 5
8 9 2
8 10 4
8 11 3
8 12 3
9 10 2
9 11 4
9 12 4
10 11 2
10 12 5
11 12 2
